10
5
 96  56
 85  45
 33  63
 35  67
 26  78
 69  21
 76  41
 50  34
 60  44
 83  31
 68  15
 70  79
 52  46
  3  17
 67  18
 72  12
 97  97
 74  67
 41  51
 20  10
 41   8
 73  30
 92  12
 42  42
 35  93
 70  13
  2  17
 64  91
 78  93
 98  29
